(set-logic QF_UF)
(declare-fun G1gat () Bool)
(declare-fun G4gat () Bool)
(declare-fun G8gat () Bool)
(declare-fun G11gat () Bool)
(declare-fun G14gat () Bool)
(declare-fun G17gat () Bool)
(declare-fun G21gat () Bool)
(declare-fun G24gat () Bool)
(declare-fun G27gat () Bool)
(declare-fun G30gat () Bool)
(declare-fun G34gat () Bool)
(declare-fun G37gat () Bool)
(declare-fun G40gat () Bool)
(declare-fun G43gat () Bool)
(declare-fun G47gat () Bool)
(declare-fun G50gat () Bool)
(declare-fun G53gat () Bool)
(declare-fun G56gat () Bool)
(declare-fun G60gat () Bool)
(declare-fun G63gat () Bool)
(declare-fun G66gat () Bool)
(declare-fun G69gat () Bool)
(declare-fun G73gat () Bool)
(declare-fun G76gat () Bool)
(declare-fun G79gat () Bool)
(declare-fun G82gat () Bool)
(declare-fun G86gat () Bool)
(declare-fun G89gat () Bool)
(declare-fun G92gat () Bool)
(declare-fun G95gat () Bool)
(declare-fun G99gat () Bool)
(declare-fun G102gat () Bool)
(declare-fun G105gat () Bool)
(declare-fun G108gat () Bool)
(declare-fun G112gat () Bool)
(declare-fun G115gat () Bool)
(assert (let ((.def_0 (not G76gat))) (let ((.def_1 (and .def_0 G82gat))) (let ((.def_2 (not .def_1))) (let ((.def_3 (not G11gat))) (let ((.def_4 (and .def_3 G17gat))) (let ((.def_5 (not .def_4))) (let ((.def_6 (not G102gat))) (let ((.def_7 (and G108gat .def_6))) (let ((.def_8 (not .def_7))) (let ((.def_9 (not G37gat))) (let ((.def_10 (and .def_9 G43gat))) (let ((.def_11 (not .def_10))) (let ((.def_12 (not G1gat))) (let ((.def_13 (and .def_12 G4gat))) (let ((.def_14 (not .def_13))) (let ((.def_15 (not G89gat))) (let ((.def_16 (and .def_15 G95gat))) (let ((.def_17 (not .def_16))) (let ((.def_18 (not G24gat))) (let ((.def_19 (and G30gat .def_18))) (let ((.def_20 (not .def_19))) (let ((.def_21 (not G63gat))) (let ((.def_22 (and .def_21 G69gat))) (let ((.def_23 (not .def_22))) (let ((.def_24 (not G50gat))) (let ((.def_25 (and .def_24 G56gat))) (let ((.def_26 (not .def_25))) (let ((.def_27 (and .def_26 .def_23 .def_20 .def_17 .def_14 .def_11 .def_8 .def_5 .def_2))) (let ((.def_28 (not .def_27))) (let ((.def_29 (and G50gat .def_28))) (let ((.def_30 (not .def_29))) (let ((.def_31 (not G82gat))) (let ((.def_32 (or G86gat .def_31))) (let ((.def_33 (not .def_32))) (let ((.def_34 (= .def_28 .def_2))) (let ((.def_35 (not .def_34))) (let ((.def_36 (and .def_35 .def_33))) (let ((.def_37 (not .def_36))) (let ((.def_38 (= .def_28 .def_26))) (let ((.def_39 (not .def_38))) (let ((.def_40 (not G56gat))) (let ((.def_41 (or .def_40 G60gat))) (let ((.def_42 (not .def_41))) (let ((.def_43 (and .def_42 .def_39))) (let ((.def_44 (not .def_43))) (let ((.def_45 (not G4gat))) (let ((.def_46 (or .def_45 G8gat))) (let ((.def_47 (not .def_46))) (let ((.def_48 (= .def_28 .def_14))) (let ((.def_49 (not .def_48))) (let ((.def_50 (and .def_49 .def_47))) (let ((.def_51 (not .def_50))) (let ((.def_52 (= .def_28 .def_8))) (let ((.def_53 (not .def_52))) (let ((.def_54 (not G108gat))) (let ((.def_55 (or .def_54 G112gat))) (let ((.def_56 (not .def_55))) (let ((.def_57 (and .def_56 .def_53))) (let ((.def_58 (not .def_57))) (let ((.def_59 (not G17gat))) (let ((.def_60 (or G21gat .def_59))) (let ((.def_61 (not .def_60))) (let ((.def_62 (= .def_5 .def_28))) (let ((.def_63 (not .def_62))) (let ((.def_64 (and .def_63 .def_61))) (let ((.def_65 (not .def_64))) (let ((.def_66 (not G95gat))) (let ((.def_67 (or .def_66 G99gat))) (let ((.def_68 (not .def_67))) (let ((.def_69 (= .def_28 .def_17))) (let ((.def_70 (not .def_69))) (let ((.def_71 (and .def_70 .def_68))) (let ((.def_72 (not .def_71))) (let ((.def_73 (not G30gat))) (let ((.def_74 (or .def_73 G34gat))) (let ((.def_75 (not .def_74))) (let ((.def_76 (= .def_28 .def_20))) (let ((.def_77 (not .def_76))) (let ((.def_78 (and .def_77 .def_75))) (let ((.def_79 (not .def_78))) (let ((.def_80 (= .def_23 .def_28))) (let ((.def_81 (not .def_80))) (let ((.def_82 (not G69gat))) (let ((.def_83 (or .def_82 G73gat))) (let ((.def_84 (not .def_83))) (let ((.def_85 (and .def_84 .def_81))) (let ((.def_86 (not .def_85))) (let ((.def_87 (= .def_28 .def_11))) (let ((.def_88 (not .def_87))) (let ((.def_89 (not G43gat))) (let ((.def_90 (or G47gat .def_89))) (let ((.def_91 (not .def_90))) (let ((.def_92 (and .def_91 .def_88))) (let ((.def_93 (not .def_92))) (let ((.def_94 (and .def_93 .def_86 .def_79 .def_72 .def_65 .def_58 .def_51 .def_44 .def_37))) (let ((.def_95 (not .def_94))) (let ((.def_96 (= .def_93 .def_95))) (let ((.def_97 (not .def_96))) (let ((.def_98 (or G53gat .def_89))) (let ((.def_99 (not .def_98))) (let ((.def_100 (and .def_88 .def_99))) (let ((.def_101 (and .def_100 .def_97))) (let ((.def_102 (not .def_101))) (let ((.def_103 (= .def_51 .def_95))) (let ((.def_104 (not .def_103))) (let ((.def_105 (or .def_45 G14gat))) (let ((.def_106 (not .def_105))) (let ((.def_107 (and .def_49 .def_106))) (let ((.def_108 (and .def_107 .def_104))) (let ((.def_109 (not .def_108))) (let ((.def_110 (or .def_40 G66gat))) (let ((.def_111 (not .def_110))) (let ((.def_112 (and .def_111 .def_39))) (let ((.def_113 (= .def_44 .def_95))) (let ((.def_114 (not .def_113))) (let ((.def_115 (and .def_114 .def_112))) (let ((.def_116 (not .def_115))) (let ((.def_117 (= .def_95 .def_58))) (let ((.def_118 (not .def_117))) (let ((.def_119 (or G115gat .def_54))) (let ((.def_120 (not .def_119))) (let ((.def_121 (and .def_120 .def_53))) (let ((.def_122 (and .def_121 .def_118))) (let ((.def_123 (not .def_122))) (let ((.def_124 (or G79gat .def_82))) (let ((.def_125 (not .def_124))) (let ((.def_126 (and .def_81 .def_125))) (let ((.def_127 (= .def_86 .def_95))) (let ((.def_128 (not .def_127))) (let ((.def_129 (and .def_128 .def_126))) (let ((.def_130 (not .def_129))) (let ((.def_131 (= .def_65 .def_95))) (let ((.def_132 (not .def_131))) (let ((.def_133 (or G27gat .def_59))) (let ((.def_134 (not .def_133))) (let ((.def_135 (and .def_134 .def_63))) (let ((.def_136 (and .def_135 .def_132))) (let ((.def_137 (not .def_136))) (let ((.def_138 (or .def_31 G92gat))) (let ((.def_139 (not .def_138))) (let ((.def_140 (and .def_35 .def_139))) (let ((.def_141 (= .def_37 .def_95))) (let ((.def_142 (not .def_141))) (let ((.def_143 (and .def_142 .def_140))) (let ((.def_144 (not .def_143))) (let ((.def_145 (= .def_95 .def_79))) (let ((.def_146 (not .def_145))) (let ((.def_147 (or .def_73 G40gat))) (let ((.def_148 (not .def_147))) (let ((.def_149 (and .def_148 .def_77))) (let ((.def_150 (and .def_149 .def_146))) (let ((.def_151 (not .def_150))) (let ((.def_152 (or G105gat .def_66))) (let ((.def_153 (not .def_152))) (let ((.def_154 (and .def_70 .def_153))) (let ((.def_155 (= .def_72 .def_95))) (let ((.def_156 (not .def_155))) (let ((.def_157 (and .def_156 .def_154))) (let ((.def_158 (not .def_157))) (let ((.def_159 (and .def_158 .def_151 .def_144 .def_137 .def_130 .def_123 .def_116 .def_109 .def_102))) (let ((.def_160 (not .def_159))) (let ((.def_161 (and G66gat .def_160))) (let ((.def_162 (not .def_161))) (let ((.def_163 (and G60gat .def_95))) (let ((.def_164 (not .def_163))) (let ((.def_165 (and .def_164 .def_162 .def_30 G56gat))) (let ((.def_166 (not .def_165))) (let ((.def_167 (and G27gat .def_160))) (let ((.def_168 (not .def_167))) (let ((.def_169 (and .def_28 G11gat))) (let ((.def_170 (not .def_169))) (let ((.def_171 (and G21gat .def_95))) (let ((.def_172 (not .def_171))) (let ((.def_173 (and .def_172 .def_170 .def_168 G17gat))) (let ((.def_174 (not .def_173))) (let ((.def_175 (and G47gat .def_95))) (let ((.def_176 (not .def_175))) (let ((.def_177 (and .def_28 G37gat))) (let ((.def_178 (not .def_177))) (let ((.def_179 (and G53gat .def_160))) (let ((.def_180 (not .def_179))) (let ((.def_181 (and .def_180 .def_178 .def_176 G43gat))) (let ((.def_182 (and G24gat .def_28))) (let ((.def_183 (not .def_182))) (let ((.def_184 (and G40gat .def_160))) (let ((.def_185 (not .def_184))) (let ((.def_186 (and G34gat .def_95))) (let ((.def_187 (not .def_186))) (let ((.def_188 (and G30gat .def_187 .def_185 .def_183))) (let ((.def_189 (not .def_188))) (let ((.def_190 (and .def_189 .def_181))) (let ((.def_191 (not .def_190))) (let ((.def_192 (and .def_189 .def_191 .def_174 .def_166))) (let ((.def_193 (not .def_192))) (let ((.def_194 (not .def_181))) (let ((.def_195 (and G105gat .def_160))) (let ((.def_196 (not .def_195))) (let ((.def_197 (and G99gat .def_95))) (let ((.def_198 (not .def_197))) (let ((.def_199 (and G89gat .def_28))) (let ((.def_200 (not .def_199))) (let ((.def_201 (and .def_200 .def_198 .def_196 G95gat))) (let ((.def_202 (and G86gat .def_95))) (let ((.def_203 (not .def_202))) (let ((.def_204 (and .def_28 G76gat))) (let ((.def_205 (not .def_204))) (let ((.def_206 (and .def_160 G92gat))) (let ((.def_207 (not .def_206))) (let ((.def_208 (and G82gat .def_207 .def_205 .def_203))) (let ((.def_209 (not .def_208))) (let ((.def_210 (and .def_189 .def_209 .def_201 .def_194))) (let ((.def_211 (not .def_210))) (let ((.def_212 (and G63gat .def_28))) (let ((.def_213 (not .def_212))) (let ((.def_214 (and G73gat .def_95))) (let ((.def_215 (not .def_214))) (let ((.def_216 (and G79gat .def_160))) (let ((.def_217 (not .def_216))) (let ((.def_218 (and .def_217 .def_215 .def_213 G69gat))) (let ((.def_219 (and .def_189 .def_218 .def_166 .def_194))) (let ((.def_220 (not .def_219))) (let ((.def_221 (and .def_220 .def_191 .def_211 .def_174))) (let ((.def_222 (and .def_28 G1gat))) (let ((.def_223 (not .def_222))) (let ((.def_224 (and G14gat .def_160))) (let ((.def_225 (not .def_224))) (let ((.def_226 (and G8gat .def_95))) (let ((.def_227 (not .def_226))) (let ((.def_228 (and .def_227 .def_225 .def_223 G4gat))) (let ((.def_229 (and .def_28 G102gat))) (let ((.def_230 (not .def_229))) (let ((.def_231 (and G115gat .def_160))) (let ((.def_232 (not .def_231))) (let ((.def_233 (and G112gat .def_95))) (let ((.def_234 (not .def_233))) (let ((.def_235 (and .def_234 G108gat .def_232 .def_230))) (let ((.def_236 (not .def_235))) (let ((.def_237 (not .def_201))) (let ((.def_238 (not .def_218))) (let ((.def_239 (and .def_189 .def_174 .def_238 .def_209 .def_237 .def_236 .def_166 .def_194))) (let ((.def_240 (or .def_239 .def_228))) (let ((.def_241 (not .def_240))) (let ((.def_242 (and .def_208 .def_166 .def_194))) (let ((.def_243 (not .def_242))) (let ((.def_244 (and .def_189 .def_220 .def_243 .def_174))) (let ((.def_245 (and .def_244 .def_241 .def_221 .def_193))) .def_245)))))))))))))))))))))))))))))))))))))))))))))))))))))))))))))))))))))))))))))))))))))))))))))))))))))))))))))))))))))))))))))))))))))))))))))))))))))))))))))))))))))))))))))))))))))))))))))))))))))))))))))))))))))))))))))))))))))))))))))))))))))))
(check-sat)
